%%% static parameters %%%
timespan = 1;
Fact = [3];
Distr1 = [10];
Distr2 = [20];
Clients_N = [40];
Demand_W = [15];
Lt0 = [4];
Lt1 = [4];
SS_ = [0.85];
DS_D = [7];
K = [200];
MA = [500];
%%% dynamic parameters %%%
lost_ratio_sales_ret_th = 0.49214677535847795;
lost_ratio_sales_ret_w = 25;
lost_ratio_sales_dis_th = 0.07033506299204417;
lost_ratio_sales_dis_w = 72;
lost_ratio_sales_fac_th = 0.6491592940161893;
lost_ratio_sales_fac_w = 39;
stock_customer_MA_mean_relative_th = 0.29373550128836745;
stock_customer_MA_mean_relative_w = 48;
stock_distributor_MA_mean_relative_th = 0.7504661762778599;
stock_distributor_MA_mean_relative_w = 29;
stock_retailer_MA_mean_relative_th = 0.066031478296394;
stock_retailer_MA_mean_relative_w = 22;
stock_factory_MA_mean_relative_th = 0.3139987969598539;
stock_factory_MA_mean_relative_w = 18;
